36226.2
199 150 31 74 0 44 38 168 95 103 33 60 183 110 111 189 32 90 177 158 15 178 27 47 130 151 30 102 61 106 25 70 119 166 51 14 162 134 192 148 62 80 20 173 176 35 112 21 187 121 19 53 159 116 63 28 185 46 137 146 109 123 157 129 12 78 77 196 156 107 140 147 76 82 195 23 197 117 160 194 141 50 136 115 182 86 175 180 58 191 98 145 87 174 113 37 69 52 105 144 179 18 36 67 153 85 188 172 49 190 22 83 108 59 152 198 100 8 149 81 163 4 181 64 55 138 165 170 56 84 45 161 127 184 48 42 16 93 43 6 120 124 73 39 65 128 143 169 101 122 26 135 40 114 104 57 11 13 186 132 167 34 155 96 17 118 94 66 131 75 91 54 154 10 99 5 2 126 88 139 29 193 68 133 125 41 164 71 92 1 3 24 9 171 72 142 89 7 97 79 
